x04m01e6t1tp5
3414
3414
3476
3476
3476
3476
3476
3476
3542
3542
3542
3542
3542
3542
3542
3542
3542
3542
3561
3561
3561
3561
3561
3561
3561
3561
3561
3561
3561
3561
3561
3561
3561
3561
3561
3561
3607
3607
3607
3607
3607
3607
3607
3607
3607
3631
3631
3840
3840
3851
3851
3851
3851
3851
3851
3851
3851
3851
3851
3851
3851
3851
3851
3851
3851
3851
3851
3851
3877
3877
3877
3877
3877
3877
3877
3877
3877
3877
3877
3877
3877
3877
3877
3877
3877
3877
3877
3877
3877
3877
3877
3877
3877
3877
3877
3877
3877
3877
3877
3877
3877
3877
3877
3877
3877
3877
3877
3877
3877
3877
3877
3877
3877
3877
3877
3877
3877
3877
3877
3877
3877
3877
3877
3877
3877
3877
3877
3877
3877
3877
3877
3877
3877
3877
3877
3877
3877
3877
3877
3877
3877
3877
3877
3877
3877
3877
3877
3877
3877
3877
3877
3877
3877
3877
3877
3877
3877
3877
3877
3877
3877
3877
3877
3877
3877
3877
3877
3877
3877
3877
3877
3877
3877
3877
3877
3877
3877
3877
3877
3877
3877
3877
3877
3877
3877
3877
3877
3877
3877
3877
3877
3877
3877
3877
3877
3877
3877
3877
3877
3877
3877
3877
3877
3877
3877
3877
3877
3877
3877
3877
3877
3877
3877
3877
3877
3877
3877
3877
3877
3877
3877
3877
3877
3877
3877
3877
3877
3877
3877
3877
3877
3877
3877
3877
3877
3877
3877
3877
3877
3877
3877
3877
3877
3877
3877
3877
3877
3877
3877
3877
3877
3877
3877
3877
3877
3877
3877
3877
3877
3877
3877
3877
3877
3877
3877
3877
3877
3877
3877
3877
3877
3877
3877
3877
3877
3877
3877
3877
3877
3877
3877
3877
3877
3965
3965
3965
3965
3965
3965
3965
3965
3965
3965
3965
3965
3965
3965
3965
3965
3965
3965
3965
3965
3965
3965
3965
3965
3965
3965
3965
3965
3965
3965
3965
3965
3965
3965
3965
3965
3965
3965
3965
3965
3965
3965
3965
3965
3965
3965
3965
3965
3965
3965
3965
3965
3965
3965
3965
3965
3965
3965
3965
3965
3965
3965
3965
3965
3965
3965
3965
3965
3965
3965
3965
3965
3981
3981
3981
3981
4007
4007
4007
4007
4007
4007
4007
4007
4007
4007
4007
4007
4007
4007
4007
4007
4007
4007
4007
4007
4007
4007
4007
4007
4007
4007
4007
4007
4007
4007
4007
4007
4007
4007
4007
4007
4007
4007
4007
4007
4007
4007
4007
4007
4007
4007
4007
4007
4007
4007
4007
4007
4007
4007
4007
4007
4007
4007
4007
4007
4007
4007
4007
4007
4007
4007
4007
4007
4007
4007
4007
4007
4007
4007
4007
4007
4007
4007
4007
4007
4007
4007
4007
4007
4007
4007
4007
4007
4007
4007
4007
4007
4007
4007
4007
4007
4007
4007
4007
4007
4007
4007
4007
4007
4007
4007
4007
4007
4007
4007
4007
4007
4007
4007
4007
4007
4007
4007
4007
4007
4007
4007
4007
4007
4007
4007
4007
4007
4007
4007
4007
4007
4007
4007
4007
4007
4007
4007
4007
4007
4007
4007
4007
4007
4007
4007
4007
4007
4007
4007
4007
4007
4007
4007
4007
4007
4007
4007
4007
4007
4007
4007
4007
4007
4007
4007
4007
4007
4007
4007
4007
4007
4007
4007
4007
4007
4007
4007
4007
4007
4007
4007
4007
4007
4007
4007
4007
4007
4007
4007
4007
4007
4007
4007
4007
4007
4007
4007
4007
4007
4007
4007
4007
4007
4007
4007
4007
4007
4007
4007
4007
4007
4007
4007
4007
4007
4007
4007
4007
4007
4007
4007
4007
4007
4007
4007
4007
4007
4007
4007
4007
4007
4007
4007
4007
4007
4007
4007
4007
4007
4007
4007
4007
4007
4007
4007
4007
4007
4007
4007
4007
4007
4007
4007
4007
4007
4007
4007
4007
4007
4007
4007
4007
4007
4007
4007
4007
4007
4007
4007
4007
4007
4007
4007
4007
4007
4007
4007
4007
4007
4007
4007
4007
4007
4007
4007
4007
4007
4007
4007
4007
4007
4007
4007
4007
4007
4007
4007
4007
4007
4007
4007
4007
4007
4007
4007
4007
4007
4007
4007
4007
4007
4007
4007
4007
4007
4007
4007
4007
4007
4007
4007
4007
4007
4007
4007
4007
4007
4007
4007
4007
4007
4007
4007
4007
4007
4007
4007
4007
4007
4007
4007
4007
4007
4007
4007
4007
4007
4007
4007
4007
4007
4007
4007
4007
4007
4007
4007
4007
4007
4007
4007
4007
4007
4007
4007
4007
4007
4007
4007
4007
4007
4007
4007
4007
4007
4007
4007
4007
4007
4007
4007
4007
4007
4007
4007
4007
4007
4007
4007
4007
4007
4007
4007
4007
4007
4007
4007
4007
4007
4007
4007
4007
4007
4007
4007
4007
4007
4007
4007
4007
4007
4007
4007
4007
4007
4007
4007
4007
4007
4007
4007
4007
4007
4007
4007
4007
4007
4007
4007
4007
4007
4007
4007
4007
4007
4007
4007
4007
4007
4007
4007
4007
4007
4007
4007
4007
4007
4007
4007
4007
4007
4007
4007
4007
4007
4007
4007
4007
4007
4007
4007
4007
4007
4007
4007
4007
4007
4007
4007
4007
4007
4007
4007
4007
4007
4007
4007
4007
4007
4007
4007
4007
4007
4007
4007
4007
4007
4007
4007
4007
4007
4007
4007
4007
4007
4007
4007
4007
4007
4007
4007
4007
4007
4007
4007
4007
4007
4007
4007
4007
4007
4007
4007
4007
4007
4007
4007
4007
4007
4007
4007
4007
4007
4007
4007
4007
4007
4007
4007
4007
4007
4007
4007
4007
4007
4007
4007
4007
4007
4007
4007
4007
4007
4007
4007
4007
4007
4007
4007
4007
4007
4007
4007
4007
4007
4007
4007
4007
4007
4007
4007
4007
4007
4007
4007
4007
4007
4007
4007
4007
4007
4007
4007
4007
4007
4007
4007
4007
4007
4007
4007
4007
4007
4007
4007
4007
4007
4007
4007
4007
4007
4007
4007
4007
4007
4007
4007
4007
4007
4007
4007
4007
4007
4007
4007
4007
4007
4007
4007
4007
4007
4007
4007
4007
4007
4007
4007
4007
4007
4007
4007
4007
4007
4007
4007
4007
4007
4007
4007
4007
4007
4007
4007
4007
4007
4007
4007
4007
4007
4007
